(set-logic QF_S)
(declare-fun var_0xINPUT_75692 () String)
(assert (and (= (len var_0xINPUT_75692) 0) (= (len var_0xINPUT_75692) 0) (not (= var_0xINPUT_75692 "qXdHDo7IZR"))))
(check-sat var_0xINPUT_75692)